(set-info :Origin "This instance was generated by: BanditFuzz-- an RL fuzzer for SMT solvers" )
(set-info :Author "Joe Scott, Fed Mora, Vijay Ganesh" )
(set-info :Contact "Joe Scott, joseph.scott@uwaterloo.ca")
; solvers/z3.sh
; 	time => 0.22924089431762695
; 	answer => sat
; solvers/bitwuzla.sh
; 	time => 0.12807321548461914
; 	answer => sat
; solvers/cvc4.sh
; 	time => 0.10896468162536621
; 	answer => err
(set-logic QF_BV)
(declare-const bool_0 Bool)
(declare-const bool_1 Bool)
(declare-const bool_2 Bool)
(declare-const bool_3 Bool)
(declare-const bool_4 Bool)
(declare-const bv_0 (_ BitVec 32))
(declare-const bv_1 (_ BitVec 32))
(declare-const bv_2 (_ BitVec 32))
(declare-const bv_3 (_ BitVec 32))
(declare-const bv_4 (_ BitVec 32))
(assert (or (not (bvuge bv_0 #x7e42cae3 )) (bvsle (bvxnor bv_4 #xa41b2c3c ) (bvand #x446294f4  #x788c5311 ))))
(assert (bvsge (bvurem (bvmul #x61de3fec  #x95bb0c98 ) (bvxor #xfa8465ee  bv_0)) (bvnand (bvor #x9414a6f4  bv_0) (bvsub bv_0 #x30d144b7 ))))
(assert (xor (bvslt (bvshl #x144a6dd7  #x3de585a1 ) (bvand #xbe8b89fa  bv_3)) (bvslt (bvurem #x9c69ccb1  #x0e2583b6 ) (bvsub bv_1 #x69c05c07 ))))
(assert (bvslt (bvadd (bvurem #x096df94d  bv_4) (bvnor bv_1 #x4ae20081 )) (bvsmod (bvshl bv_1 #x11b3e6d1 ) (bvnand #xcf99f1c0  bv_1))))
(assert (or (bvsgt (bvnand #xf3d13dea  bv_3) (bvshl bv_2 bv_4)) (bvslt (bvand bv_3 bv_0) (bvashr #x7f6ae6ef  #xf8a438e1 ))))
(check-sat)
(exit)
